p cnf 110 384
3 1 0
3 2 0
-1 -2 -3 0
-5 -3 0
-5 4 0
3 -4 5 0
8 7 0
8 -4 0
-7 4 -8 0
9 -6 0
9 -8 0
6 8 -9 0
-10 -9 0
-10 4 0
9 -4 10 0
11 -10 0
11 -4 0
10 4 -11 0
-13 -3 0
-13 12 0
3 -12 13 0
7 14 -15 0
-7 -14 -15 0
7 -14 15 0
-7 14 15 0
16 13 0
16 15 0
-13 -15 -16 0
3 16 -17 0
-3 -16 -17 0
3 -16 17 0
-3 16 17 0
-11 17 -18 0
11 -17 -18 0
-11 -17 18 0
11 17 18 0
-8 12 -19 0
8 -12 -19 0
-8 -12 19 0
8 12 19 0
-20 -10 0
-20 19 0
10 -19 20 0
21 19 0
21 -16 0
-19 16 -21 0
-22 12 0
-22 -21 0
-12 21 22 0
-20 -22 -23 0
20 22 -23 0
-20 22 23 0
20 -22 23 0
-24 11 0
-24 23 0
-11 -23 24 0
-25 24 0
-25 24 0
-24 25 0
-18 25 -26 0
18 -25 -26 0
-18 -25 26 0
18 25 26 0
27 -5 0
27 26 0
5 -26 -27 0
28 7 0
28 -23 0
-7 23 -28 0
-30 28 0
-30 -29 0
-28 29 30 0
31 -14 0
31 -16 0
14 16 -31 0
-12 -31 -32 0
12 31 -32 0
-12 31 32 0
12 -31 32 0
-34 8 0
-34 3 0
-8 -3 34 0
33 -34 -35 0
-33 34 -35 0
33 34 35 0
-33 -34 35 0
-37 36 0
-37 1 0
-36 -1 37 0
33 37 -38 0
-33 -37 -38 0
33 -37 38 0
-33 37 38 0
-39 38 0
-39 -36 0
-38 36 39 0
-41 -31 0
-41 40 0
31 -40 41 0
39 -41 -42 0
-39 41 -42 0
39 41 42 0
-39 -41 42 0
35 -42 -43 0
-35 42 -43 0
35 42 43 0
-35 -42 43 0
44 -32 0
44 43 0
32 -43 -44 0
45 -16 0
45 -36 0
16 36 -45 0
6 4 -46 0
-6 -4 -46 0
6 -4 46 0
-6 4 46 0
-47 14 0
-47 12 0
-14 -12 47 0
-48 47 0
-48 36 0
-47 -36 48 0
49 -46 0
49 -48 0
46 48 -49 0
-50 45 0
-50 -49 0
-45 49 50 0
-53 -51 0
-53 52 0
51 -52 53 0
54 53 0
54 -19 0
-53 19 -54 0
55 31 0
55 54 0
-31 -54 -55 0
56 36 0
56 55 0
-36 -55 -56 0
-57 56 0
-57 -22 0
-56 22 57 0
58 50 0
58 57 0
-50 -57 -58 0
-51 -9 -59 0
51 9 -59 0
-51 9 59 0
51 -9 59 0
59 4 -60 0
-59 -4 -60 0
59 -4 60 0
-59 4 60 0
61 -58 0
61 60 0
58 -60 -61 0
-44 -61 -62 0
44 61 -62 0
-44 61 62 0
44 -61 62 0
30 -62 -63 0
-30 62 -63 0
30 62 63 0
-30 -62 63 0
-64 -36 0
-64 -36 0
36 64 0
-13 -64 -65 0
13 64 -65 0
-13 64 65 0
13 -64 65 0
-47 -1 -66 0
47 1 -66 0
-47 1 66 0
47 -1 66 0
12 -66 -67 0
-12 66 -67 0
12 66 67 0
-12 -66 67 0
-65 67 -68 0
65 -67 -68 0
-65 -67 68 0
65 67 68 0
69 55 0
69 -46 0
-55 46 -69 0
68 69 -70 0
-68 -69 -70 0
68 -69 70 0
-68 69 70 0
-53 -59 -71 0
53 59 -71 0
-53 59 71 0
53 -59 71 0
31 -71 -72 0
-31 71 -72 0
31 71 72 0
-31 -71 72 0
73 -14 0
73 37 0
14 -37 -73 0
-75 -23 0
-75 -74 0
23 74 75 0
73 75 -76 0
-73 -75 -76 0
73 -75 76 0
-73 75 76 0
-14 3 -77 0
14 -3 -77 0
-14 -3 77 0
14 3 77 0
78 -17 0
78 77 0
17 -77 -78 0
79 74 0
79 -78 0
-74 78 -79 0
-80 -76 0
-80 -79 0
76 79 80 0
-81 -72 0
-81 80 0
72 -80 81 0
82 -70 0
82 -81 0
70 81 -82 0
83 63 0
83 -82 0
-63 82 -83 0
84 21 0
84 -21 0
-85 37 0
-85 74 0
-37 -74 85 0
-86 84 0
-86 85 0
-84 -85 86 0
-87 -51 0
-87 -1 0
51 1 87 0
-87 22 -88 0
87 -22 -88 0
-87 -22 88 0
87 22 88 0
89 -7 0
89 88 0
7 -88 -89 0
90 -29 0
90 -51 0
29 51 -90 0
91 -89 0
91 90 0
89 -90 -91 0
-92 -55 0
-92 -12 0
55 12 92 0
-93 34 0
-93 -9 0
-34 9 93 0
-94 9 0
-94 -93 0
-9 93 94 0
-28 -94 -95 0
28 94 -95 0
-28 94 95 0
28 -94 95 0
-96 37 0
-96 -17 0
-37 17 96 0
97 95 0
97 96 0
-95 -96 -97 0
-92 97 -98 0
92 -97 -98 0
-92 -97 98 0
92 97 98 0
-91 98 -99 0
91 -98 -99 0
-91 -98 99 0
91 98 99 0
10 -23 -100 0
-10 23 -100 0
10 23 100 0
-10 -23 100 0
-101 54 0
-101 46 0
-54 -46 101 0
102 -16 0
102 20 0
16 -20 -102 0
-101 -102 -103 0
101 102 -103 0
-101 102 103 0
101 -102 103 0
104 100 0
104 103 0
-100 -103 -104 0
99 -104 -105 0
-99 104 -105 0
99 104 105 0
-99 -104 105 0
-106 -86 0
-106 105 0
86 -105 106 0
107 -6 0
107 34 0
6 -34 -107 0
108 106 0
108 -107 0
-106 107 -108 0
-109 83 0
-109 108 0
-83 -108 109 0
110 27 0
110 -109 0
-27 109 -110 0
11 -9 0
82 -16 -9 102 -109 0
88 -11 -58 -27 0
75 79 43 64 0
86 -27 22 88 0
88 -6 48 19 -47 3 0
60 -107 0
8 96 -10 -79 82 0
16 87 95 13 0
-46 82 0
-88 106 -10 110 -50 -14 0
66 -85 0
-40 -5 0
-69 -79 -27 0
17 -28 -53 0
100 -105 0
-18 -44 -38 0
36 94 -62 84 -28 0
-6 -51 109 82 96 -64 0
-104 -89 45 0
-75 -42 -77 7 -29 -60 0
-2 36 65 95 -25 0
105 90 38 0
45 76 52 0
-82 48 81 34 0
-74 77 0
11 8 98 74 -102 0
-98 -91 -95 0
-21 69 -59 0
4 -19 0
106 -74 -80 0
-66 58 81 0
-2 -102 87 -32 62 0
60 93 -11 -89 78 0
-61 70 -60 -92 29 0
-45 -104 -25 -105 -102 98 0
32 10 -67 106 -29 0
33 94 59 0
31 -19 -8 32 0
90 65 -75 0
-93 -103 0
32 91 10 75 -74 0
74 -93 -21 -27 24 -60 0
11 -34 0
79 38 0
-99 41 -66 -13 86 0
-104 -34 86 25 0
104 -39 0
89 -33 69 -50 -83 73 0
-35 72 -108 0
44 94 35 -14 104 0
76 -104 0
-12 37 -89 67 -98 0
92 34 87 -58 4 -2 0
27 21 -24 75 -109 0
103 -93 -99 0
-80 98 -81 -60 27 0
-12 107 0
68 6 0
10 14 42 0
-110 39 57 81 -76 -63 0
64 60 -74 -34 78 8 0
-16 69 104 0
-56 28 0
110 0
